Maximize
  - 39 x0 - 45 x1 + 0 x2 + 0 x3 - 5 x4 + 0 x5 - 45 x6 - 34 x7 - 18 x8
   + 20 x9 + 0 x10 + 27 x11 + 15 x12 + 0 x13 + 33 x14 - 33 x15 + 26 x16
   - 8 x17 - 49 x18 - 35 x19 + 32 x20 + 0 x21 + 23 x22 + 47 x23 - 25 x24
   - 40 x25 - 33 x26 + 25 x27 - 47 x28 + 0 x29 + 15 x30 - 30 x31 + 0 x32
   - 37 x33 + 0 x34 + 17 x35 - 7 x36 - 44 x37 - 21 x38 + 23 x39 + [
   39 x0 ^2 - 32 x0 * x1 + 14 x0 * x2 + 42 x0 * x3 + 80 x0 * x6 + 6 x0 * x8
   - 34 x0 * x9 - 36 x0 * x12 - 74 x0 * x13 + 44 x0 * x16 - 44 x0 * x17
   - 18 x0 * x18 - 12 x0 * x19 + 26 x0 * x20 + 4 x0 * x22 - 4 x0 * x23
   - 44 x0 * x24 - 10 x0 * x30 + 94 x0 * x31 + 26 x0 * x33 - 26 x0 * x34
   + 74 x0 * x35 - 38 x0 * x36 - 88 x0 * x37 - 38 x0 * x38 + 70 x0 * x39
   - 21 x1 ^2 - 24 x1 * x2 + 72 x1 * x3 - 82 x1 * x4 + 28 x1 * x5
   - 24 x1 * x8 - 84 x1 * x9 + 2 x1 * x11 - 30 x1 * x12 - 46 x1 * x13
   - 64 x1 * x14 - 84 x1 * x16 + 84 x1 * x17 + 24 x1 * x18 - 28 x1 * x19
   + 62 x1 * x22 - 74 x1 * x23 - 20 x1 * x24 - 92 x1 * x27 - 48 x1 * x28
   - 84 x1 * x31 - 46 x1 * x32 + 14 x1 * x35 - 92 x1 * x37 - 58 x1 * x38
   - 56 x1 * x39 - 6 x2 * x3 - 6 x2 * x4 - 54 x2 * x6 - 24 x2 * x9
   - 70 x2 * x11 + 70 x2 * x12 - 16 x2 * x15 + 30 x2 * x16 + 92 x2 * x17
   - 94 x2 * x18 + 56 x2 * x20 + 94 x2 * x22 + 52 x2 * x24 + 78 x2 * x25
   - 34 x2 * x26 - 58 x2 * x27 - 64 x2 * x28 - 20 x2 * x29 + 4 x2 * x31
   - 52 x2 * x33 + 30 x2 * x35 + 90 x2 * x36 + 14 x3 * x4 - 16 x3 * x5
   - 32 x3 * x7 - 58 x3 * x8 + 84 x3 * x9 + 46 x3 * x10 + 70 x3 * x11
   + 58 x3 * x13 + 28 x3 * x15 - 36 x3 * x16 + 54 x3 * x17 - 96 x3 * x18
   + 92 x3 * x20 + 86 x3 * x22 + 46 x3 * x23 + 12 x3 * x24 + 84 x3 * x28
   + 82 x3 * x29 - 84 x3 * x31 + 88 x3 * x35 - 88 x3 * x36 + 62 x3 * x37
   - 38 x3 * x38 - 34 x4 ^2 - 50 x4 * x5 - 10 x4 * x6 + 82 x4 * x10
   + 78 x4 * x11 + 66 x4 * x12 - 94 x4 * x13 - 64 x4 * x15 + 14 x4 * x16
   + 20 x4 * x18 - 32 x4 * x20 - 76 x4 * x21 - 72 x4 * x22 + 24 x4 * x23
   + 82 x4 * x24 + 68 x4 * x27 + 58 x4 * x28 - 22 x4 * x29 - 34 x4 * x30
   + 76 x4 * x32 - 16 x4 * x33 + 10 x4 * x34 + 16 x4 * x35 - 78 x4 * x36
   - 10 x4 * x38 - 86 x4 * x39 + 14 x5 ^2 + 94 x5 * x6 - 60 x5 * x7
   - 8 x5 * x8 + 70 x5 * x9 + 62 x5 * x10 - 72 x5 * x11 + 82 x5 * x12
   + 92 x5 * x14 + 50 x5 * x16 - 96 x5 * x17 - 20 x5 * x20 - 90 x5 * x21
   - 76 x5 * x22 - 56 x5 * x24 - 82 x5 * x25 - 50 x5 * x26 + 16 x5 * x27
   + 76 x5 * x28 - 36 x5 * x33 + 50 x5 * x34 + 94 x5 * x35 - 76 x5 * x36
   + 26 x5 * x37 - 26 x5 * x39 - 56 x6 * x9 + 64 x6 * x10 + 92 x6 * x12
   + 72 x6 * x13 + 60 x6 * x14 - 72 x6 * x19 + 82 x6 * x20 - 22 x6 * x21
   + 54 x6 * x24 - 90 x6 * x25 + 98 x6 * x26 + 70 x6 * x29 + 40 x6 * x32
   + 42 x6 * x34 - 60 x6 * x35 + 84 x6 * x36 + 60 x6 * x37 - 26 x6 * x38
   - 92 x6 * x39 + 4 x7 ^2 - 74 x7 * x8 + 32 x7 * x13 + 40 x7 * x14
   - 32 x7 * x16 - 50 x7 * x17 + 2 x7 * x18 + 2 x7 * x19 + 50 x7 * x20
   - 72 x7 * x21 - 90 x7 * x22 - 50 x7 * x23 + 76 x7 * x24 + 30 x7 * x28
   - 68 x7 * x31 - 44 x7 * x32 - 36 x7 * x33 - 10 x7 * x34 + 62 x7 * x35
   + 96 x7 * x37 + 14 x7 * x38 - 26 x7 * x39 - 18 x8 * x9 - 2 x8 * x10
   - 4 x8 * x11 + 76 x8 * x12 - 8 x8 * x13 - 94 x8 * x14 + 72 x8 * x15
   - 82 x8 * x16 - 20 x8 * x17 - 94 x8 * x18 - 40 x8 * x19 - 24 x8 * x20
   + 50 x8 * x21 + 6 x8 * x22 + 54 x8 * x24 + 42 x8 * x26 + 64 x8 * x28
   - 88 x8 * x29 + 46 x8 * x30 + 60 x8 * x33 + 6 x8 * x34 - 72 x8 * x35
   + 80 x8 * x37 - 94 x8 * x38 - 10 x8 * x39 + 40 x9 ^2 - 84 x9 * x10
   - 64 x9 * x14 - 56 x9 * x15 + 80 x9 * x16 + 2 x9 * x17 + 88 x9 * x19
   + 48 x9 * x21 + 58 x9 * x22 - 50 x9 * x24 - 82 x9 * x25 - 32 x9 * x26
   - 8 x9 * x27 - 40 x9 * x28 + 10 x9 * x29 + 52 x9 * x30 - 44 x9 * x31
   + 58 x9 * x32 + 76 x9 * x33 + 74 x9 * x34 - 14 x9 * x35 + 6 x9 * x38
   - 3 x10 ^2 - 98 x10 * x11 + 90 x10 * x12 + 86 x10 * x14 - 2 x10 * x15
   - 22 x10 * x16 + 94 x10 * x20 + 32 x10 * x21 + 42 x10 * x23
   + 14 x10 * x24 - 14 x10 * x26 + 12 x10 * x27 - 16 x10 * x28
   + 48 x10 * x30 - 70 x10 * x32 + 56 x10 * x33 + 72 x10 * x34
   + 70 x10 * x35 - 68 x10 * x36 + 32 x10 * x37 + 2 x10 * x38
   + 50 x10 * x39 - 18 x11 ^2 + 50 x11 * x12 + 10 x11 * x13 - 8 x11 * x14
   - 68 x11 * x15 + 62 x11 * x16 - 84 x11 * x17 - 46 x11 * x18
   + 10 x11 * x19 + 34 x11 * x20 + 10 x11 * x24 + 56 x11 * x25
   - 70 x11 * x26 + 26 x11 * x28 - 88 x11 * x31 + 62 x11 * x32
   + 62 x11 * x33 + 72 x11 * x34 - 48 x11 * x35 - 26 x11 * x36
   + 48 x11 * x37 - 18 x11 * x38 + 72 x11 * x39 - 60 x12 * x15
   - 68 x12 * x16 + 62 x12 * x17 - 36 x12 * x18 - 18 x12 * x20
   + 70 x12 * x21 + 32 x12 * x22 - 88 x12 * x23 - 2 x12 * x24 - 2 x12 * x25
   + 8 x12 * x26 + 70 x12 * x28 + 94 x12 * x29 + 88 x12 * x35
   + 44 x12 * x36 + 38 x12 * x38 + 16 x13 ^2 + 96 x13 * x14 + 86 x13 * x16
   + 80 x13 * x17 + 70 x13 * x22 + 22 x13 * x23 - 2 x13 * x24
   - 26 x13 * x25 - 92 x13 * x26 + 76 x13 * x27 + 16 x13 * x28
   + 72 x13 * x29 - 20 x13 * x30 - 64 x13 * x31 - 20 x13 * x32
   - 86 x13 * x33 - 56 x13 * x34 - 50 x13 * x35 - 70 x13 * x36
   + 26 x13 * x38 + 32 x14 ^2 + 26 x14 * x16 + 42 x14 * x17 + 76 x14 * x18
   - 48 x14 * x21 + 18 x14 * x22 + 74 x14 * x24 - 18 x14 * x25
   - 26 x14 * x26 - 28 x14 * x27 + 56 x14 * x29 - 88 x14 * x30
   + 72 x14 * x31 - 94 x14 * x32 + 74 x14 * x34 + 88 x14 * x35
   - 92 x14 * x38 - 12 x14 * x39 - 46 x15 ^2 - 22 x15 * x16 - 66 x15 * x19
   - 64 x15 * x21 - 4 x15 * x22 + 60 x15 * x24 - 12 x15 * x25
   + 52 x15 * x26 - 24 x15 * x27 + 54 x15 * x28 + 24 x15 * x29
   - 16 x15 * x30 - 62 x15 * x31 - 66 x15 * x33 - 94 x15 * x35
   + 20 x15 * x36 + 60 x15 * x38 + 42 x15 * x39 + 38 x16 ^2 + 12 x16 * x17
   + 98 x16 * x18 + 30 x16 * x20 - 76 x16 * x22 - 70 x16 * x26
   + 94 x16 * x27 - 82 x16 * x29 - 84 x16 * x30 - 98 x16 * x31
   + 4 x16 * x32 + 84 x16 * x33 - 16 x16 * x34 + 26 x16 * x35
   - 22 x16 * x36 + 26 x16 * x37 + 70 x16 * x38 + 3 x17 ^2 - 76 x17 * x18
   - 96 x17 * x25 + 76 x17 * x26 - 68 x17 * x28 - 28 x17 * x29
   - 70 x17 * x30 + 44 x17 * x32 + 8 x17 * x35 + 56 x17 * x37 - 47 x18 ^2
   - 46 x18 * x20 + 74 x18 * x21 + 36 x18 * x25 - 70 x18 * x28
   - 28 x18 * x33 + 8 x18 * x35 - 80 x18 * x37 + 76 x18 * x39
   - 20 x19 * x22 + 32 x19 * x23 - 12 x19 * x24 + 98 x19 * x25
   - 58 x19 * x26 - 32 x19 * x27 + 52 x19 * x29 - 96 x19 * x30
   + 32 x19 * x31 - 66 x19 * x32 + 82 x19 * x33 - 28 x19 * x34
   + 78 x19 * x35 - 34 x19 * x37 + 36 x19 * x38 - 41 x20 ^2 - 26 x20 * x21
   + 68 x20 * x24 - 24 x20 * x26 - 70 x20 * x27 - 42 x20 * x28
   - 90 x20 * x29 - 60 x20 * x31 - 18 x20 * x33 + 60 x20 * x34
   - 88 x20 * x35 + 10 x20 * x36 - 44 x20 * x37 + 72 x20 * x38
   - 92 x20 * x39 + 98 x21 * x22 - 64 x21 * x23 - 60 x21 * x24
   + 94 x21 * x26 + 66 x21 * x29 - 60 x21 * x30 + 88 x21 * x31
   - 70 x21 * x32 + 50 x21 * x34 - 28 x21 * x36 + 62 x21 * x37
   + 38 x21 * x38 + 48 x21 * x39 + 46 x22 ^2 - 68 x22 * x23 + 70 x22 * x25
   - 16 x22 * x27 - 58 x22 * x28 - 94 x22 * x29 + 96 x22 * x30
   + 60 x22 * x31 + 88 x22 * x34 + 66 x22 * x36 - 46 x22 * x37
   - 82 x22 * x38 - 82 x23 * x24 - 44 x23 * x25 - 24 x23 * x26
   - 62 x23 * x28 + 16 x23 * x29 + 70 x23 * x30 + 68 x23 * x32
   + 32 x23 * x34 - 12 x23 * x37 + 16 x23 * x38 + 50 x23 * x39 + 9 x24 ^2
   + 8 x24 * x25 - 76 x24 * x27 + 40 x24 * x28 + 16 x24 * x30
   + 70 x24 * x31 - 28 x24 * x32 - 48 x24 * x35 - 88 x24 * x36
   + 66 x24 * x37 + 44 x24 * x38 - 15 x25 ^2 - 92 x25 * x28 - 96 x25 * x29
   + 24 x25 * x30 - 60 x25 * x31 - 40 x25 * x32 - 62 x25 * x33
   + 40 x25 * x34 + 44 x25 * x36 - 28 x25 * x39 - 5 x26 ^2 - 14 x26 * x27
   + 56 x26 * x28 + 98 x26 * x29 - 86 x26 * x30 - 2 x26 * x31
   - 18 x26 * x33 - 98 x26 * x34 - 92 x26 * x35 + 52 x26 * x36
   - 26 x26 * x37 + 18 x26 * x38 + x27 ^2 + 76 x27 * x28 + 94 x27 * x30
   + 12 x27 * x31 + 32 x27 * x33 + 92 x27 * x34 + 4 x27 * x35
   + 78 x27 * x36 - 98 x27 * x37 + 88 x27 * x38 + 3 x28 ^2 + 2 x28 * x31
   - 86 x28 * x32 - 94 x28 * x33 - 78 x28 * x34 - 40 x28 * x38
   + 4 x28 * x39 - 27 x29 ^2 - 72 x29 * x30 + 76 x29 * x31 + 80 x29 * x32
   - 98 x29 * x35 - 84 x29 * x36 - 50 x29 * x37 - 26 x29 * x39 - 31 x30 ^2
   + 80 x30 * x32 + 8 x30 * x34 + 32 x30 * x35 - 7 x31 ^2 - 98 x31 * x34
   + 94 x31 * x35 - 86 x31 * x37 - 46 x31 * x38 - 2 x31 * x39 + 37 x32 ^2
   - 76 x32 * x33 + 54 x32 * x34 + 88 x32 * x36 - 98 x32 * x37 + 27 x33 ^2
   + 16 x33 * x35 - 80 x33 * x38 + 46 x33 * x39 + 32 x34 * x35
   - 70 x34 * x36 - 52 x34 * x37 - 62 x34 * x38 - 47 x35 ^2 + 84 x35 * x36
   + 56 x35 * x37 + 40 x35 * x38 - 6 x35 * x39 - 58 x36 * x37
   + 56 x36 * x39 - 22 x37 ^2 + 72 x37 * x38 + 96 x37 * x39 - 6 x39 ^2
   ] / 2 
Subject To
Bounds
 x0 <= 1
 x1 <= 1
 x2 <= 1
 x3 <= 1
 x4 <= 1
 x5 <= 1
 x6 <= 1
 x7 <= 1
 x8 <= 1
 x9 <= 1
 x10 <= 1
 x11 <= 1
 x12 <= 1
 x13 <= 1
 x14 <= 1
 x15 <= 1
 x16 <= 1
 x17 <= 1
 x18 <= 1
 x19 <= 1
 x20 <= 1
 x21 <= 1
 x22 <= 1
 x23 <= 1
 x24 <= 1
 x25 <= 1
 x26 <= 1
 x27 <= 1
 x28 <= 1
 x29 <= 1
 x30 <= 1
 x31 <= 1
 x32 <= 1
 x33 <= 1
 x34 <= 1
 x35 <= 1
 x36 <= 1
 x37 <= 1
 x38 <= 1
 x39 <= 1
End
